datasets/2-dimensional/CL_08_25_05.vbp
2
150 150 
25
24 93 30
30 82 72
32 82 4
74 39 88
67 48 54
30 80 64
87 32 90
69 49 26
74 43 94
66 50 28
36 76 72
82 32 49
89 25 54
47 70 19
55 57 28
77 35 61
24 88 84
73 38 23
29 82 67
44 73 53
55 55 54
27 83 16
30 83 9
82 37 54
68 42 77
