2-dimensional/CL_08_25_05.txt
150 150 
0 30 24 93 
1 72 30 82 
2 4 32 82 
3 88 74 39 
4 54 67 48 
5 64 30 80 
6 90 87 32 
7 26 69 49 
8 94 74 43 
9 28 66 50 
10 72 36 76 
11 49 82 32 
12 54 89 25 
13 19 47 70 
14 28 55 57 
15 61 77 35 
16 84 24 88 
17 23 73 38 
18 67 29 82 
19 53 44 73 
20 54 55 55 
21 16 27 83 
22 9 30 83 
23 54 82 37 
24 77 68 42 
